9
-1 67 34 69 24 78 58 62 64
5 -1 81 27 61 91 95 42 27
36 91 -1 2 53 92 82 21 16
18 95 47 -1 71 38 69 12 67
99 35 94 3 -1 22 33 73 64
41 11 53 68 47 -1 62 57 37
59 23 41 29 78 16 -1 90 42
88 6 40 42 64 48 46 -1 90
29 70 50 6 1 93 48 29 -1
